results/x-long/X-n190-k8.vrp_seed-47.out
16985	1097
