results/x-long/X-n190-k8.vrp_seed-47.vrp.sol
Route #1: 172 127 44 88 165 1 184 160 182 83 29 37
Route #2: 105 19 188 57 63 66 171 13 120 168 110 4 163 128 34 103 108 129 156 133 72 139 149 45 99 131
Route #3: 95 143 97 24 12 176 5 47 101 52 71 123 177 146 186 87 152 41 174 151 137 125 86 77 147 78 169 112 73
Route #4: 16 170 166 157 173 132 161 74 111 113 91 59 55 69 178 50 94 144 115 145 92 46
Route #5: 31 135 121 158 164 23 9 114 53 154 189 140 124 187 27 15 3 96 90 42 62 179 21
Route #6: 102 159 142 104 89 109 35 6 2 38 22 36 39 30 150 80 85 138 28 58 43 10
Route #7: 118 14 67 51 93 75 134 107 33 65 20 162 7 155 17 79 60 116 82 122 11 175 117 26 49 119 106
Route #8: 81 68 100 8 56 130 48 54 126 181 70 76 185 18 40 32 61 180 153 84 98 141 148 167 136 183 25 64
Cost 16985.000000